; benchmark generated from python API
(set-info :status unknown)
(declare-datatypes ((RealState 0)) (((RMk1 (rval1 Real)) (RMk2 (rval2 Real)))))
 (assert
 (forall ((|v17:0| Real) )(forall ((|v16:1| Real) )(forall ((|v15:2| Real) )(forall ((|v14:3| Real) )(forall ((|v13:4| Real) )(forall ((|v12:5| Real) )(exists ((|v11:6_st| RealState) (val!9606 Real) )(exists ((|v10:7_st| RealState) (val!9607 Real) )(exists ((|v9:8_st| RealState) (val!9608 Real) )(exists ((|v8:9_st| RealState) (val!9609 Real) )(exists ((|v7:10_st| RealState) (val!9610 Real) )(exists ((|v6:11_st| RealState) (val!9611 Real) )(forall ((|v5:12| Real) )(forall ((|v4:13| Real) )(forall ((|v3:14| Real) )(forall ((|v2:15| Real) )(forall ((|v1:16| Real) )(forall ((|v0:17| Real) )(let ((?x476 (* 8.0 |v4:13|)))
 (let ((?x9136 (* 5.0 |v0:17|)))
 (let ((?x3735 (* (- 14.0) |v2:15|)))
 (let ((?x4940 (* (- 9.0) |v5:12|)))
 (let ((?x8497 (+ (+ (+ (* (- 7.0) |v13:4|) (* (- 7.0) (rval2 |v9:8_st|))) ?x4940) ?x3735)))
 (let ((?x976 (- 12.0)))
 (let ((?x1588 (* 10.0 |v2:15|)))
 (let ((?x904 (+ (+ (* (- 8.0) |v17:0|) (* (- 13.0) |v4:13|)) (* 18.0 (rval2 |v8:9_st|)))))
 (let ((?x3041 (+ (+ (+ ?x904 ?x1588) (* (- 15.0) (rval2 |v6:11_st|))) (* (- 18.0) |v17:0|))))
 (let (($x8898 (and (<= (+ ?x3041 (* 12.0 |v15:2|)) ?x976) (<= (+ (+ (+ ?x8497 (* 0.0 (rval2 |v9:8_st|))) ?x9136) ?x476) 8.0))))
 (let (($x4184 (not (= |v6:11_st| (RMk1 val!9611)))))
 (let (($x3947 (not (= |v7:10_st| (RMk1 val!9610)))))
 (let (($x3746 (not (= |v8:9_st| (RMk1 val!9609)))))
 (let (($x3505 (not (= |v9:8_st| (RMk1 val!9608)))))
 (let (($x1202 (not (= |v10:7_st| (RMk1 val!9607)))))
 (and (not (= |v11:6_st| (RMk1 val!9606))) $x1202 $x3505 $x3746 $x3947 $x4184 $x8898)))))))))))))))))
 )
 )
 )
 )
 )
 )
 )
 )
 )
 )
 )
 )
 )
 )
 )
 )
 )
 )
(check-sat)
